newtestsuite/output/if.opb
* #variable= 163 #constraint= 497
min: 0 x1 +0 x3 +0 x5 +0 x7 +1 x5 -1 x3 x5 +1 x7 +1 x3 x7 +1 x12 -1 x1 x12 -1 x3 x12 +1 x1 x3 x12 +1 x14 x3 x12 -1 x14 x1 x3 x12 +0 x12 +1 x16 -1 x1 x16 -1 x12 x16 +1 x1 x12 x16 +1 x18 x12 x16 -1 x18 x1 x12 x16 +0 x16 +1 x20 -1 x1 x20 -1 x16 x20 +1 x1 x16 x20 +1 x22 x16 x20 -1 x22 x1 x16 x20 +1 x3 -1 x1 x3 +0 x1 +0 x3 +0 x5 +0 x7 +1 x5 -1 x3 x5 +1 x7 +1 x3 x7 +1 x3 x5 x7 x10 -1 x5 x7 x10 +1 x12 -1 x1 x12 +0 x12 +1 x16 -1 x1 x16 +0 x16 +1 x20 -1 x1 x20 +3 x3 -3 x1 x3 +1 x1 x3 x12 x14 -1 x3 x12 x14 +1 x1 x3 x16 x25 -1 x3 x16 x25 +1 x1 x3 x20 x26 -1 x3 x20 x26 +1 x1 x12 x16 x18 -1 x12 x16 x18 +1 x1 x12 x20 x27 -1 x12 x20 x27 +1 x1 x16 x20 x22 -1 x16 x20 x22; 
+1 x1 = 0;
+1 x3 = 1;
+1 x5 = 1;
+1 x5 = 1;
+1 x7 = 1;
+1 x7 = 1;
+1 x11 =  0;
+1 x9 =  0;
 +1 x1  -1 x12  -1 x16  -1 x18  >= -2;
 +1 x1  -1 x12  +1 x16  >= 0;
 +1 x1  -1 x3  -1 x12  -1 x14  >= -2;
 +1 x1  -1 x3  +1 x12  >= 0;
-1 x1 +1 x12 >= 0;
-1 x1 +1 x16 >= 0;
-1 x1 +1 x20 >= 0;
-1 x1 +1 x3 >= 0;
 +1 x15 = 0;
  +1 x19 = 0;
  +1 x23 = 0;
  +1 x24 = 0;
 -1 x3 +1 x5 >= 0;
-1 x3 +1 x7 >= 0;
 +1 x9 = 0;
 +1 x10 +1 x11 -1 x41 >= 0;
+1 x10 +1 x28 -1 x42 >= 0;
+1 x10 +1 x29 -1 x37 >= 0;
+1 x10 +1 x31 -1 x43 >= 0;
+1 x10 +1 x32 -1 x38 >= 0;
+1 x10 +1 x33 -1 x44 >= 0;
+1 x10 +1 x34 -1 x39 >= 0;
+1 x10 +1 x35 -1 x45 >= 0;
+1 x10 +1 x36 -1 x40 >= 0;
+1 x10 +1 x9 -1 x46 >= 0;
-1 x10 +1 x11 +1 x41 >= 0;
-1 x10 +1 x28 +1 x42 >= 0;
-1 x10 +1 x29 +1 x37 >= 0;
-1 x10 +1 x31 +1 x43 >= 0;
-1 x10 +1 x32 +1 x38 >= 0;
-1 x10 +1 x33 +1 x44 >= 0;
-1 x10 +1 x34 +1 x39 >= 0;
-1 x10 +1 x35 +1 x45 >= 0;
-1 x10 +1 x36 +1 x40 >= 0;
-1 x10 +1 x9 +1 x46 >= 0;
+1 x11 +1 x10 -1 x9 >= 0;
+1 x11 +1 x14 -1 x49 >= 0;
+1 x11 +1 x15 -1 x48 >= 0;
+1 x11 +1 x25 -1 x25 >= 0;
+1 x11 +1 x25 -1 x50 >= 0;
+1 x11 +1 x26 -1 x26 >= 0;
+1 x11 +1 x26 -1 x51 >= 0;
+1 x11 +1 x29 -1 x47 >= 0;
+1 x11 +1 x30 -1 x14 >= 0;
+1 x11 +1 x32 -1 x14 >= 0;
+1 x11 +1 x34 -1 x25 >= 0;
+1 x11 +1 x36 -1 x26 >= 0;
+1 x11 +1 x9 -1 x52 >= 0;
-1 x11 +1 x10 +1 x9 >= 0;
-1 x11 +1 x14 +1 x49 >= 0;
-1 x11 +1 x15 +1 x48 >= 0;
-1 x11 +1 x25 +1 x25 >= 0;
-1 x11 +1 x25 +1 x50 >= 0;
-1 x11 +1 x26 +1 x26 >= 0;
-1 x11 +1 x26 +1 x51 >= 0;
-1 x11 +1 x29 +1 x47 >= 0;
-1 x11 +1 x30 +1 x14 >= 0;
-1 x11 +1 x32 +1 x14 >= 0;
-1 x11 +1 x34 +1 x25 >= 0;
-1 x11 +1 x36 +1 x26 >= 0;
-1 x11 +1 x9 +1 x52 >= 0;
+1 x14 +1 x11 -1 x58 >= 0;
+1 x14 +1 x15 -1 x54 >= 0;
+1 x14 +1 x18 -1 x25 >= 0;
+1 x14 +1 x19 -1 x53 >= 0;
+1 x14 +1 x25 -1 x25 >= 0;
+1 x14 +1 x25 -1 x55 >= 0;
+1 x14 +1 x26 -1 x26 >= 0;
+1 x14 +1 x26 -1 x56 >= 0;
+1 x14 +1 x27 -1 x26 >= 0;
+1 x14 +1 x31 -1 x9 >= 0;
+1 x14 +1 x32 -1 x11 >= 0;
+1 x14 +1 x9 -1 x57 >= 0;
-1 x14 +1 x11 +1 x58 >= 0;
-1 x14 +1 x15 +1 x54 >= 0;
-1 x14 +1 x18 +1 x25 >= 0;
-1 x14 +1 x19 +1 x53 >= 0;
-1 x14 +1 x25 +1 x25 >= 0;
-1 x14 +1 x25 +1 x55 >= 0;
-1 x14 +1 x26 +1 x26 >= 0;
-1 x14 +1 x26 +1 x56 >= 0;
-1 x14 +1 x27 +1 x26 >= 0;
-1 x14 +1 x31 +1 x9 >= 0;
-1 x14 +1 x32 +1 x11 >= 0;
-1 x14 +1 x9 +1 x57 >= 0;
+1 x15 +1 x11 -1 x29 >= 0;
+1 x15 +1 x14 -1 x19 >= 0;
+1 x15 +1 x19 -1 x14 >= 0;
+1 x15 +1 x23 -1 x59 >= 0;
+1 x15 +1 x24 -1 x60 >= 0;
+1 x15 +1 x25 -1 x23 >= 0;
+1 x15 +1 x26 -1 x24 >= 0;
+1 x15 +1 x28 -1 x61 >= 0;
+1 x15 +1 x29 -1 x62 >= 0;
+1 x15 +1 x30 -1 x19 >= 0;
+1 x15 +1 x9 -1 x28 >= 0;
-1 x15 +1 x11 +1 x29 >= 0;
-1 x15 +1 x14 +1 x19 >= 0;
-1 x15 +1 x19 +1 x14 >= 0;
-1 x15 +1 x23 +1 x59 >= 0;
-1 x15 +1 x24 +1 x60 >= 0;
-1 x15 +1 x25 +1 x23 >= 0;
-1 x15 +1 x26 +1 x24 >= 0;
-1 x15 +1 x28 +1 x61 >= 0;
-1 x15 +1 x29 +1 x62 >= 0;
-1 x15 +1 x30 +1 x19 >= 0;
-1 x15 +1 x9 +1 x28 >= 0;
+1 x18 +1 x14 -1 x30 >= 0;
+1 x18 +1 x19 -1 x64 >= 0;
+1 x18 +1 x22 -1 x27 >= 0;
+1 x18 +1 x23 -1 x63 >= 0;
+1 x18 +1 x25 -1 x30 >= 0;
+1 x18 +1 x27 -1 x27 >= 0;
+1 x18 +1 x27 -1 x65 >= 0;
+1 x18 +1 x30 -1 x66 >= 0;
+1 x18 +1 x31 -1 x67 >= 0;
+1 x18 +1 x32 -1 x68 >= 0;
+1 x18 +1 x33 -1 x31 >= 0;
+1 x18 +1 x34 -1 x32 >= 0;
-1 x18 +1 x14 +1 x30 >= 0;
-1 x18 +1 x19 +1 x64 >= 0;
-1 x18 +1 x22 +1 x27 >= 0;
-1 x18 +1 x23 +1 x63 >= 0;
-1 x18 +1 x25 +1 x30 >= 0;
-1 x18 +1 x27 +1 x27 >= 0;
-1 x18 +1 x27 +1 x65 >= 0;
-1 x18 +1 x30 +1 x66 >= 0;
-1 x18 +1 x31 +1 x67 >= 0;
-1 x18 +1 x32 +1 x68 >= 0;
-1 x18 +1 x33 +1 x31 >= 0;
-1 x18 +1 x34 +1 x32 >= 0;
+1 x19 +1 x14 -1 x15 >= 0;
+1 x19 +1 x15 -1 x70 >= 0;
+1 x19 +1 x18 -1 x23 >= 0;
+1 x19 +1 x23 -1 x18 >= 0;
+1 x19 +1 x24 -1 x69 >= 0;
+1 x19 +1 x27 -1 x24 >= 0;
+1 x19 +1 x28 -1 x71 >= 0;
+1 x19 +1 x29 -1 x72 >= 0;
+1 x19 +1 x30 -1 x15 >= 0;
+1 x19 +1 x31 -1 x28 >= 0;
+1 x19 +1 x32 -1 x29 >= 0;
-1 x19 +1 x14 +1 x15 >= 0;
-1 x19 +1 x15 +1 x70 >= 0;
-1 x19 +1 x18 +1 x23 >= 0;
-1 x19 +1 x23 +1 x18 >= 0;
-1 x19 +1 x24 +1 x69 >= 0;
-1 x19 +1 x27 +1 x24 >= 0;
-1 x19 +1 x28 +1 x71 >= 0;
-1 x19 +1 x29 +1 x72 >= 0;
-1 x19 +1 x30 +1 x15 >= 0;
-1 x19 +1 x31 +1 x28 >= 0;
-1 x19 +1 x32 +1 x29 >= 0;
+1 x22 +1 x18 -1 x77 >= 0;
+1 x22 +1 x23 -1 x76 >= 0;
+1 x22 +1 x24 -1 x73 >= 0;
+1 x22 +1 x25 -1 x25 >= 0;
+1 x22 +1 x25 -1 x78 >= 0;
+1 x22 +1 x26 -1 x25 >= 0;
+1 x22 +1 x27 -1 x74 >= 0;
+1 x22 +1 x27 -1 x75 >= 0;
+1 x22 +1 x33 -1 x79 >= 0;
+1 x22 +1 x34 -1 x80 >= 0;
+1 x22 +1 x35 -1 x33 >= 0;
+1 x22 +1 x36 -1 x34 >= 0;
-1 x22 +1 x18 +1 x77 >= 0;
-1 x22 +1 x23 +1 x76 >= 0;
-1 x22 +1 x24 +1 x73 >= 0;
-1 x22 +1 x25 +1 x25 >= 0;
-1 x22 +1 x25 +1 x78 >= 0;
-1 x22 +1 x26 +1 x25 >= 0;
-1 x22 +1 x27 +1 x74 >= 0;
-1 x22 +1 x27 +1 x75 >= 0;
-1 x22 +1 x33 +1 x79 >= 0;
-1 x22 +1 x34 +1 x80 >= 0;
-1 x22 +1 x35 +1 x33 >= 0;
-1 x22 +1 x36 +1 x34 >= 0;
+1 x23 +1 x15 -1 x83 >= 0;
+1 x23 +1 x18 -1 x19 >= 0;
+1 x23 +1 x19 -1 x81 >= 0;
+1 x23 +1 x22 -1 x24 >= 0;
+1 x23 +1 x24 -1 x82 >= 0;
+1 x23 +1 x25 -1 x15 >= 0;
+1 x23 +1 x28 -1 x84 >= 0;
+1 x23 +1 x29 -1 x85 >= 0;
+1 x23 +1 x33 -1 x28 >= 0;
+1 x23 +1 x34 -1 x29 >= 0;
-1 x23 +1 x15 +1 x83 >= 0;
-1 x23 +1 x18 +1 x19 >= 0;
-1 x23 +1 x19 +1 x81 >= 0;
-1 x23 +1 x22 +1 x24 >= 0;
-1 x23 +1 x24 +1 x82 >= 0;
-1 x23 +1 x25 +1 x15 >= 0;
-1 x23 +1 x28 +1 x84 >= 0;
-1 x23 +1 x29 +1 x85 >= 0;
-1 x23 +1 x33 +1 x28 >= 0;
-1 x23 +1 x34 +1 x29 >= 0;
+1 x24 +1 x15 -1 x87 >= 0;
+1 x24 +1 x19 -1 x27 >= 0;
+1 x24 +1 x22 -1 x23 >= 0;
+1 x24 +1 x23 -1 x86 >= 0;
+1 x24 +1 x26 -1 x15 >= 0;
+1 x24 +1 x27 -1 x19 >= 0;
+1 x24 +1 x28 -1 x88 >= 0;
+1 x24 +1 x29 -1 x89 >= 0;
+1 x24 +1 x35 -1 x28 >= 0;
+1 x24 +1 x36 -1 x29 >= 0;
-1 x24 +1 x15 +1 x87 >= 0;
-1 x24 +1 x19 +1 x27 >= 0;
-1 x24 +1 x22 +1 x23 >= 0;
-1 x24 +1 x23 +1 x86 >= 0;
-1 x24 +1 x26 +1 x15 >= 0;
-1 x24 +1 x27 +1 x19 >= 0;
-1 x24 +1 x28 +1 x88 >= 0;
-1 x24 +1 x29 +1 x89 >= 0;
-1 x24 +1 x35 +1 x28 >= 0;
-1 x24 +1 x36 +1 x29 >= 0;
+1 x25 +1 x11 -1 x95 >= 0;
+1 x25 +1 x14 -1 x92 >= 0;
+1 x25 +1 x15 -1 x91 >= 0;
+1 x25 +1 x18 -1 x14 >= 0;
+1 x25 +1 x22 -1 x26 >= 0;
+1 x25 +1 x23 -1 x90 >= 0;
+1 x25 +1 x26 -1 x26 >= 0;
+1 x25 +1 x26 -1 x93 >= 0;
+1 x25 +1 x30 -1 x14 >= 0;
+1 x25 +1 x33 -1 x9 >= 0;
+1 x25 +1 x34 -1 x11 >= 0;
+1 x25 +1 x9 -1 x94 >= 0;
-1 x25 +1 x11 +1 x95 >= 0;
-1 x25 +1 x14 +1 x92 >= 0;
-1 x25 +1 x15 +1 x91 >= 0;
-1 x25 +1 x18 +1 x14 >= 0;
-1 x25 +1 x22 +1 x26 >= 0;
-1 x25 +1 x23 +1 x90 >= 0;
-1 x25 +1 x26 +1 x26 >= 0;
-1 x25 +1 x26 +1 x93 >= 0;
-1 x25 +1 x30 +1 x14 >= 0;
-1 x25 +1 x33 +1 x9 >= 0;
-1 x25 +1 x34 +1 x11 >= 0;
-1 x25 +1 x9 +1 x94 >= 0;
+1 x26 +1 x11 -1 x101 >= 0;
+1 x26 +1 x14 -1 x98 >= 0;
+1 x26 +1 x15 -1 x97 >= 0;
+1 x26 +1 x22 -1 x25 >= 0;
+1 x26 +1 x24 -1 x96 >= 0;
+1 x26 +1 x25 -1 x25 >= 0;
+1 x26 +1 x25 -1 x99 >= 0;
+1 x26 +1 x27 -1 x14 >= 0;
+1 x26 +1 x30 -1 x14 >= 0;
+1 x26 +1 x35 -1 x9 >= 0;
+1 x26 +1 x36 -1 x11 >= 0;
+1 x26 +1 x9 -1 x100 >= 0;
-1 x26 +1 x11 +1 x101 >= 0;
-1 x26 +1 x14 +1 x98 >= 0;
-1 x26 +1 x15 +1 x97 >= 0;
-1 x26 +1 x22 +1 x25 >= 0;
-1 x26 +1 x24 +1 x96 >= 0;
-1 x26 +1 x25 +1 x25 >= 0;
-1 x26 +1 x25 +1 x99 >= 0;
-1 x26 +1 x27 +1 x14 >= 0;
-1 x26 +1 x30 +1 x14 >= 0;
-1 x26 +1 x35 +1 x9 >= 0;
-1 x26 +1 x36 +1 x11 >= 0;
-1 x26 +1 x9 +1 x100 >= 0;
+1 x27 +1 x14 -1 x30 >= 0;
+1 x27 +1 x18 -1 x104 >= 0;
+1 x27 +1 x19 -1 x103 >= 0;
+1 x27 +1 x22 -1 x18 >= 0;
+1 x27 +1 x24 -1 x102 >= 0;
+1 x27 +1 x26 -1 x30 >= 0;
+1 x27 +1 x30 -1 x105 >= 0;
+1 x27 +1 x31 -1 x106 >= 0;
+1 x27 +1 x32 -1 x107 >= 0;
+1 x27 +1 x35 -1 x31 >= 0;
+1 x27 +1 x36 -1 x32 >= 0;
-1 x27 +1 x14 +1 x30 >= 0;
-1 x27 +1 x18 +1 x104 >= 0;
-1 x27 +1 x19 +1 x103 >= 0;
-1 x27 +1 x22 +1 x18 >= 0;
-1 x27 +1 x24 +1 x102 >= 0;
-1 x27 +1 x26 +1 x30 >= 0;
-1 x27 +1 x30 +1 x105 >= 0;
-1 x27 +1 x31 +1 x106 >= 0;
-1 x27 +1 x32 +1 x107 >= 0;
-1 x27 +1 x35 +1 x31 >= 0;
-1 x27 +1 x36 +1 x32 >= 0;
+1 x28 +1 x10 -1 x29 >= 0;
+1 x28 +1 x15 -1 x111 >= 0;
+1 x28 +1 x19 -1 x108 >= 0;
+1 x28 +1 x23 -1 x109 >= 0;
+1 x28 +1 x24 -1 x110 >= 0;
+1 x28 +1 x29 -1 x112 >= 0;
+1 x28 +1 x31 -1 x19 >= 0;
+1 x28 +1 x33 -1 x23 >= 0;
+1 x28 +1 x35 -1 x24 >= 0;
+1 x28 +1 x9 -1 x15 >= 0;
-1 x28 +1 x10 +1 x29 >= 0;
-1 x28 +1 x15 +1 x111 >= 0;
-1 x28 +1 x19 +1 x108 >= 0;
-1 x28 +1 x23 +1 x109 >= 0;
-1 x28 +1 x24 +1 x110 >= 0;
-1 x28 +1 x29 +1 x112 >= 0;
-1 x28 +1 x31 +1 x19 >= 0;
-1 x28 +1 x33 +1 x23 >= 0;
-1 x28 +1 x35 +1 x24 >= 0;
-1 x28 +1 x9 +1 x15 >= 0;
+1 x29 +1 x10 -1 x28 >= 0;
+1 x29 +1 x11 -1 x15 >= 0;
+1 x29 +1 x15 -1 x116 >= 0;
+1 x29 +1 x19 -1 x113 >= 0;
+1 x29 +1 x23 -1 x114 >= 0;
+1 x29 +1 x24 -1 x115 >= 0;
+1 x29 +1 x28 -1 x117 >= 0;
+1 x29 +1 x32 -1 x19 >= 0;
+1 x29 +1 x34 -1 x23 >= 0;
+1 x29 +1 x36 -1 x24 >= 0;
-1 x29 +1 x10 +1 x28 >= 0;
-1 x29 +1 x11 +1 x15 >= 0;
-1 x29 +1 x15 +1 x116 >= 0;
-1 x29 +1 x19 +1 x113 >= 0;
-1 x29 +1 x23 +1 x114 >= 0;
-1 x29 +1 x24 +1 x115 >= 0;
-1 x29 +1 x28 +1 x117 >= 0;
-1 x29 +1 x32 +1 x19 >= 0;
-1 x29 +1 x34 +1 x23 >= 0;
-1 x29 +1 x36 +1 x24 >= 0;
+1 x30 +1 x11 -1 x32 >= 0;
+1 x30 +1 x15 -1 x118 >= 0;
+1 x30 +1 x18 -1 x120 >= 0;
+1 x30 +1 x19 -1 x119 >= 0;
+1 x30 +1 x25 -1 x18 >= 0;
+1 x30 +1 x26 -1 x27 >= 0;
+1 x30 +1 x27 -1 x121 >= 0;
+1 x30 +1 x27 -1 x27 >= 0;
+1 x30 +1 x31 -1 x122 >= 0;
+1 x30 +1 x32 -1 x123 >= 0;
+1 x30 +1 x9 -1 x31 >= 0;
-1 x30 +1 x11 +1 x32 >= 0;
-1 x30 +1 x15 +1 x118 >= 0;
-1 x30 +1 x18 +1 x120 >= 0;
-1 x30 +1 x19 +1 x119 >= 0;
-1 x30 +1 x25 +1 x18 >= 0;
-1 x30 +1 x26 +1 x27 >= 0;
-1 x30 +1 x27 +1 x121 >= 0;
-1 x30 +1 x27 +1 x27 >= 0;
-1 x30 +1 x31 +1 x122 >= 0;
-1 x30 +1 x32 +1 x123 >= 0;
-1 x30 +1 x9 +1 x31 >= 0;
+1 x31 +1 x10 -1 x32 >= 0;
+1 x31 +1 x14 -1 x30 >= 0;
+1 x31 +1 x18 -1 x126 >= 0;
+1 x31 +1 x19 -1 x125 >= 0;
+1 x31 +1 x27 -1 x127 >= 0;
+1 x31 +1 x27 -1 x27 >= 0;
+1 x31 +1 x28 -1 x124 >= 0;
+1 x31 +1 x30 -1 x128 >= 0;
+1 x31 +1 x32 -1 x129 >= 0;
+1 x31 +1 x33 -1 x18 >= 0;
+1 x31 +1 x35 -1 x27 >= 0;
+1 x31 +1 x9 -1 x30 >= 0;
-1 x31 +1 x10 +1 x32 >= 0;
-1 x31 +1 x14 +1 x30 >= 0;
-1 x31 +1 x18 +1 x126 >= 0;
-1 x31 +1 x19 +1 x125 >= 0;
-1 x31 +1 x27 +1 x127 >= 0;
-1 x31 +1 x27 +1 x27 >= 0;
-1 x31 +1 x28 +1 x124 >= 0;
-1 x31 +1 x30 +1 x128 >= 0;
-1 x31 +1 x32 +1 x129 >= 0;
-1 x31 +1 x33 +1 x18 >= 0;
-1 x31 +1 x35 +1 x27 >= 0;
-1 x31 +1 x9 +1 x30 >= 0;
+1 x32 +1 x10 -1 x31 >= 0;
+1 x32 +1 x11 -1 x30 >= 0;
+1 x32 +1 x14 -1 x30 >= 0;
+1 x32 +1 x18 -1 x132 >= 0;
+1 x32 +1 x19 -1 x131 >= 0;
+1 x32 +1 x27 -1 x133 >= 0;
+1 x32 +1 x27 -1 x27 >= 0;
+1 x32 +1 x29 -1 x130 >= 0;
+1 x32 +1 x30 -1 x134 >= 0;
+1 x32 +1 x31 -1 x135 >= 0;
+1 x32 +1 x34 -1 x18 >= 0;
+1 x32 +1 x36 -1 x27 >= 0;
-1 x32 +1 x10 +1 x31 >= 0;
-1 x32 +1 x11 +1 x30 >= 0;
-1 x32 +1 x14 +1 x30 >= 0;
-1 x32 +1 x18 +1 x132 >= 0;
-1 x32 +1 x19 +1 x131 >= 0;
-1 x32 +1 x27 +1 x133 >= 0;
-1 x32 +1 x27 +1 x27 >= 0;
-1 x32 +1 x29 +1 x130 >= 0;
-1 x32 +1 x30 +1 x134 >= 0;
-1 x32 +1 x31 +1 x135 >= 0;
-1 x32 +1 x34 +1 x18 >= 0;
-1 x32 +1 x36 +1 x27 >= 0;
+1 x33 +1 x10 -1 x34 >= 0;
+1 x33 +1 x18 -1 x139 >= 0;
+1 x33 +1 x22 -1 x140 >= 0;
+1 x33 +1 x23 -1 x138 >= 0;
+1 x33 +1 x25 -1 x141 >= 0;
+1 x33 +1 x25 -1 x25 >= 0;
+1 x33 +1 x28 -1 x136 >= 0;
+1 x33 +1 x31 -1 x137 >= 0;
+1 x33 +1 x34 -1 x142 >= 0;
+1 x33 +1 x35 -1 x22 >= 0;
+1 x33 +1 x9 -1 x25 >= 0;
-1 x33 +1 x10 +1 x34 >= 0;
-1 x33 +1 x18 +1 x139 >= 0;
-1 x33 +1 x22 +1 x140 >= 0;
-1 x33 +1 x23 +1 x138 >= 0;
-1 x33 +1 x25 +1 x141 >= 0;
-1 x33 +1 x25 +1 x25 >= 0;
-1 x33 +1 x28 +1 x136 >= 0;
-1 x33 +1 x31 +1 x137 >= 0;
-1 x33 +1 x34 +1 x142 >= 0;
-1 x33 +1 x35 +1 x22 >= 0;
-1 x33 +1 x9 +1 x25 >= 0;
+1 x34 +1 x10 -1 x33 >= 0;
+1 x34 +1 x11 -1 x25 >= 0;
+1 x34 +1 x18 -1 x146 >= 0;
+1 x34 +1 x22 -1 x147 >= 0;
+1 x34 +1 x23 -1 x145 >= 0;
+1 x34 +1 x25 -1 x148 >= 0;
+1 x34 +1 x25 -1 x25 >= 0;
+1 x34 +1 x29 -1 x143 >= 0;
+1 x34 +1 x32 -1 x144 >= 0;
+1 x34 +1 x33 -1 x149 >= 0;
+1 x34 +1 x36 -1 x22 >= 0;
-1 x34 +1 x10 +1 x33 >= 0;
-1 x34 +1 x11 +1 x25 >= 0;
-1 x34 +1 x18 +1 x146 >= 0;
-1 x34 +1 x22 +1 x147 >= 0;
-1 x34 +1 x23 +1 x145 >= 0;
-1 x34 +1 x25 +1 x148 >= 0;
-1 x34 +1 x25 +1 x25 >= 0;
-1 x34 +1 x29 +1 x143 >= 0;
-1 x34 +1 x32 +1 x144 >= 0;
-1 x34 +1 x33 +1 x149 >= 0;
-1 x34 +1 x36 +1 x22 >= 0;
+1 x35 +1 x10 -1 x36 >= 0;
+1 x35 +1 x22 -1 x153 >= 0;
+1 x35 +1 x24 -1 x152 >= 0;
+1 x35 +1 x26 -1 x155 >= 0;
+1 x35 +1 x26 -1 x26 >= 0;
+1 x35 +1 x27 -1 x154 >= 0;
+1 x35 +1 x27 -1 x27 >= 0;
+1 x35 +1 x28 -1 x150 >= 0;
+1 x35 +1 x31 -1 x27 >= 0;
+1 x35 +1 x33 -1 x151 >= 0;
+1 x35 +1 x36 -1 x156 >= 0;
+1 x35 +1 x9 -1 x26 >= 0;
-1 x35 +1 x10 +1 x36 >= 0;
-1 x35 +1 x22 +1 x153 >= 0;
-1 x35 +1 x24 +1 x152 >= 0;
-1 x35 +1 x26 +1 x155 >= 0;
-1 x35 +1 x26 +1 x26 >= 0;
-1 x35 +1 x27 +1 x154 >= 0;
-1 x35 +1 x27 +1 x27 >= 0;
-1 x35 +1 x28 +1 x150 >= 0;
-1 x35 +1 x31 +1 x27 >= 0;
-1 x35 +1 x33 +1 x151 >= 0;
-1 x35 +1 x36 +1 x156 >= 0;
-1 x35 +1 x9 +1 x26 >= 0;
+1 x36 +1 x10 -1 x35 >= 0;
+1 x36 +1 x11 -1 x26 >= 0;
+1 x36 +1 x22 -1 x160 >= 0;
+1 x36 +1 x24 -1 x159 >= 0;
+1 x36 +1 x26 -1 x162 >= 0;
+1 x36 +1 x26 -1 x26 >= 0;
+1 x36 +1 x27 -1 x161 >= 0;
+1 x36 +1 x27 -1 x27 >= 0;
+1 x36 +1 x29 -1 x157 >= 0;
+1 x36 +1 x32 -1 x27 >= 0;
+1 x36 +1 x34 -1 x158 >= 0;
+1 x36 +1 x35 -1 x163 >= 0;
-1 x36 +1 x10 +1 x35 >= 0;
-1 x36 +1 x11 +1 x26 >= 0;
-1 x36 +1 x22 +1 x160 >= 0;
-1 x36 +1 x24 +1 x159 >= 0;
-1 x36 +1 x26 +1 x162 >= 0;
-1 x36 +1 x26 +1 x26 >= 0;
-1 x36 +1 x27 +1 x161 >= 0;
-1 x36 +1 x27 +1 x27 >= 0;
-1 x36 +1 x29 +1 x157 >= 0;
-1 x36 +1 x32 +1 x27 >= 0;
-1 x36 +1 x34 +1 x158 >= 0;
-1 x36 +1 x35 +1 x163 >= 0;
