newtestsuite/output/if.log
c 2016-01-24T18:45:50-0500
c version = 0.4.0
c githash = <unknown>
c compilationtime = 2016-01-17 03:35:51.355783 UTC
c arch = x86_64
c os = darwin
c compiler = ghc 7.8
c packages:
c   OptDir-0.0.3
c   array-0.5.0.0
c   base-4.7.0.2
c   bytestring-0.10.4.0
c   bytestring-builder-0.10.6.0.0
c   containers-0.5.5.1
c   data-default-class-0.0.1
c   data-interval-1.2.0
c   deepseq-1.3.0.2
c   exceptions-0.8.2.1
c   extended-reals-0.2.1.0
c   filepath-1.3.0.2
c   finite-field-0.8.0
c   hashable-1.2.4.0
c   heaps-0.3.2.1
c   intern-0.9.1.4
c   loop-0.3.0
c   mtl-2.1.3.1
c   multiset-0.3.2
c   mwc-random-0.13.3.2
c   old-locale-1.0.0.6
c   parse_dimacs-1.3
c   parsec-3.1.9
c   prettyclass-1.0.0.0
c   primes-0.2.1.0
c   process-1.2.0.0
c   pseudo-boolean-0.1.3.0
c   queue-0.1.2
c   sign-0.4.3
c   stm-2.4.4.1
c   temporary-1.4.2
c   time-1.4.2
c   type-level-numbers-0.1.1.1
c   unbounded-delays-0.1.0.9
c   unordered-containers-0.2.6.0
c   vector-space-0.10.2
c command line = ["--pb","min.opb"]
c use --random-gen="1828928273 102375199 649437604 2112865895 1635180658 523920510 3012050085 4180679959 3720000323 3176361087 1562947666 608065269 1411917853 2413196997 3834594737 1829640435 868286550 2421615183 2240002453 3002583166 579531792 2291632649 1717511410 2494542740 159632607 878355673 597113831 3796268497 3980687262 1256576272 3014531521 3159983667 1013023276 2193296607 430881788 1024419522 2792246131 3116857700 2680951211 2372260273 625161490 2515836653 491268539 1373468750 2094563426 2861877777 2444471918 2082043231 523146310 2767297587 62044395 3925508530 2818722827 1885435912 3106852399 3275817608 843256396 3263421232 1041207471 1036497994 1244518275 2603255679 1249097503 1264198407 1916968726 6931871 569111037 680105398 2848985238 3157420970 1634010156 229880013 842790764 89807777 3489251412 427342183 651179121 2862618354 3732075527 4258357751 2041845491 4006398720 548912232 3847338802 3861684796 949184044 2883401072 1214603939 2820267100 4265215921 3186444485 3605434846 2131903870 1923852743 2479414873 3373394877 889055740 3499116848 809085515 3101484558 1009505567 6936750 3665593392 3439302781 2413757500 3208700692 1167744515 1654810585 469477571 3113238657 1800564264 3431502588 4233062201 4174523333 2886975034 1754074740 2346494986 369450841 1941774388 1789419519 3472197926 2504857109 2371814673 3864053897 1235395314 2373537113 1840349043 3496736386 1376894266 4139467979 3295315365 3380904469 3329722106 2646809321 2710491042 662605593 1464779 3756618088 3435050890 3861742172 147463678 2081705719 3022835271 1445822529 1540620760 8714065 325847575 3106854673 3219322750 3488201953 3748644607 770933073 1752549596 1010956373 809046351 1949793150 23266886 3406933092 2952852947 3555224030 3363121472 2026222748 1295252969 590553439 2095788630 1569696506 33005993 2882132965 2861046384 1324004880 1602937724 235487645 1433728974 1278783854 2448370677 4014407805 114549952 1375876452 3795158314 243737497 2613330432 553123595 45826787 179596342 1602484691 173718360 2436471728 1606737481 462108140 700796443 548317051 1294831525 2711242691 1919181430 2163435623 1252980165 3631876420 2065814219 2169480857 3019032322 3999208992 2540963391 2946002087 3550936901 2263122557 3468219593 4214745800 2923260678 1727781440 3917058162 1273952582 1514281341 596244319 1646758612 677434897 631283019 3782216518 894868649 2969530290 456275604 3070738360 2136124856 1730858022 2059239297 1240494893 2360984533 646886430 1449973566 316275158 2926662740 2665648998 248215659 4201521081 2780662307 901050994 973136898 2004027700 3029344523 1375251746 4151236095 286970360 1835882848 3080337470 1101212214 154362997 2262203740 296765564 2821843458 3644901542 2032098775 1039146407 4152866695 1534501212 2238702658 514836368 442382146 255 362436" option to reproduce the execution
c #vars 163
c #constraints 497
c Solving starts ...
c ============================[ Search Statistics ]============================
c  Time | Restart | Decision | Conflict |      LEARNT     | Fixed    | Removed 
c       |         |          |          |    Limit     GC | Var      | Constra 
c =============================================================================
c  0.0s |       0 |        0 |        0 |       97      0 |      158 |        0
c  0.0s |       0 |       18 |        0 |       97      0 |      158 |       79
c #cpu_time = 0.000s
c #wall_clock_time = 0.000s
c #decision = 18
c #random_decision = 0
c #conflict = 0
c #restart = 0
o 11
c Solving starts ...
c ============================[ Search Statistics ]============================
c  Time | Restart | Decision | Conflict |      LEARNT     | Fixed    | Removed 
c       |         |          |          |    Limit     GC | Var      | Constra 
c =============================================================================
c  0.0s |       0 |        0 |        0 |       97      0 |      158 |       79
c  0.0s |       0 |       11 |        1 |       97      0 |      159 |       79
c #cpu_time = 0.000s
c #wall_clock_time = 0.000s
c #decision = 11
c #random_decision = 0
c #conflict = 1
c #restart = 0
o 10
c Solving starts ...
c lower bound updated to 10
s OPTIMUM FOUND
v -x1 x2 x3 x4 x5 x6 x7 x8 -x9 x10
v -x11 x12 x13 -x14 -x15 x16 x17 -x18 -x19 -x20
v x21 -x22 -x23 -x24 -x25 -x26 -x27 -x28 -x29 -x30
v -x31 -x32 -x33 -x34 -x35 -x36 x37 x38 x39 x40
v x41 x42 x43 x44 x45 x46 -x47 -x48 -x49 -x50
v -x51 -x52 -x53 -x54 -x55 -x56 -x57 -x58 -x59 -x60
v -x61 -x62 -x63 -x64 -x65 -x66 -x67 -x68 -x69 -x70
v -x71 -x72 -x73 -x74 -x75 -x76 -x77 -x78 -x79 -x80
v -x81 -x82 -x83 -x84 -x85 -x86 -x87 -x88 -x89 -x90
v -x91 -x92 -x93 -x94 -x95 -x96 -x97 -x98 -x99 -x100
v -x101 -x102 -x103 -x104 -x105 -x106 -x107 -x108 -x109 -x110
v -x111 -x112 -x113 -x114 -x115 -x116 -x117 -x118 -x119 -x120
v -x121 -x122 -x123 -x124 -x125 -x126 -x127 -x128 -x129 -x130
v -x131 -x132 -x133 -x134 -x135 -x136 -x137 -x138 -x139 -x140
v -x141 -x142 -x143 -x144 -x145 -x146 -x147 -x148 -x149 -x150
v -x151 -x152 -x153 -x154 -x155 -x156 -x157 -x158 -x159 -x160
v -x161 -x162 -x163
c total CPU time = 0.006s
c total wall clock time = 0.007s
Position: 5137
V Position: 5151
C Position: 6032
-x1 x2 x3 x4 x5 x6 x7 x8 -x9 x10
v -x11 x12 x13 -x14 -x15 x16 x17 -x18 -x19 -x20
v x21 -x22 -x23 -x24 -x25 -x26 -x27 -x28 -x29 -x30
v -x31 -x32 -x33 -x34 -x35 -x36 x37 x38 x39 x40
v x41 x42 x43 x44 x45 x46 -x47 -x48 -x49 -x50
v -x51 -x52 -x53 -x54 -x55 -x56 -x57 -x58 -x59 -x60
v -x61 -x62 -x63 -x64 -x65 -x66 -x67 -x68 -x69 -x70
v -x71 -x72 -x73 -x74 -x75 -x76 -x77 -x78 -x79 -x80
v -x81 -x82 -x83 -x84 -x85 -x86 -x87 -x88 -x89 -x90
v -x91 -x92 -x93 -x94 -x95 -x96 -x97 -x98 -x99 -x100
v -x101 -x102 -x103 -x104 -x105 -x106 -x107 -x108 -x109 -x110
v -x111 -x112 -x113 -x114 -x115 -x116 -x117 -x118 -x119 -x120
v -x121 -x122 -x123 -x124 -x125 -x126 -x127 -x128 -x129 -x130
v -x131 -x132 -x133 -x134 -x135 -x136 -x137 -x138 -x139 -x140
v -x141 -x142 -x143 -x144 -x145 -x146 -x147 -x148 -x149 -x150
v -x151 -x152 -x153 -x154 -x155 -x156 -x157 -x158 -x159 -x160
v -x161 -x162 -x163

Calling Solver 
x10 : x5, x7  
 x11 : x3, x7  
 x14 : x3, x12  
 x15 : 
                                                                 x1, x3  
 
x18 : x12, x16  
 x19 : x1, x12  
 x22 : x16, x20  
 x23 : x1, x16  
 
x24 : x1, x20  
 x25 : x3, x16  
 x26 : x3, x20  
 x27 : x12, x20  
 
x9 : x3, x5  
 