newtestsuite/output/if.out
enclave (
 if y == x then 
  x := 1   
 else  x := 2   ; 
x := 0 ; 
y := 0  
 ) z := 0  